db/data/13108796184467405160612732793257657.z3.out
-------------------
2500.220874182
